c File: flat200_3_0.col
c
c SOURCE: Joseph Culberson (joe@cs.ualberta.ca)
c DESCRIPTION: Quasi-random coloring problem
c              generated with flatness = 0
c                             probability = 0.036
c                             known coloring = 3
c                             random seed = 1059
c              Creation Date:  Wed Feb 24 10:40:02 1999
c Maximum degree = 8 Minimum degree = 0
c COLOR VERIFICATION: Using the permuted order
c under simple greedy yields the specified
c coloring number
c Color = 3 specified partitions = 3
c p edge 200 479
c cnf created by edge2cnf
p cnf 600 2237
-1 -2 0
-1 -3 0
-2 -3 0
1 2 3 0
-4 -5 0
-4 -6 0
-5 -6 0
4 5 6 0
-7 -8 0
-7 -9 0
-8 -9 0
7 8 9 0
-10 -11 0
-10 -12 0
-11 -12 0
10 11 12 0
-13 -14 0
-13 -15 0
-14 -15 0
13 14 15 0
-16 -17 0
-16 -18 0
-17 -18 0
16 17 18 0
-19 -20 0
-19 -21 0
-20 -21 0
19 20 21 0
-22 -23 0
-22 -24 0
-23 -24 0
22 23 24 0
-25 -26 0
-25 -27 0
-26 -27 0
25 26 27 0
-28 -29 0
-28 -30 0
-29 -30 0
28 29 30 0
-31 -32 0
-31 -33 0
-32 -33 0
31 32 33 0
-34 -35 0
-34 -36 0
-35 -36 0
34 35 36 0
-37 -38 0
-37 -39 0
-38 -39 0
37 38 39 0
-40 -41 0
-40 -42 0
-41 -42 0
40 41 42 0
-43 -44 0
-43 -45 0
-44 -45 0
43 44 45 0
-46 -47 0
-46 -48 0
-47 -48 0
46 47 48 0
-49 -50 0
-49 -51 0
-50 -51 0
49 50 51 0
-52 -53 0
-52 -54 0
-53 -54 0
52 53 54 0
-55 -56 0
-55 -57 0
-56 -57 0
55 56 57 0
-58 -59 0
-58 -60 0
-59 -60 0
58 59 60 0
-61 -62 0
-61 -63 0
-62 -63 0
61 62 63 0
-64 -65 0
-64 -66 0
-65 -66 0
64 65 66 0
-67 -68 0
-67 -69 0
-68 -69 0
67 68 69 0
-70 -71 0
-70 -72 0
-71 -72 0
70 71 72 0
-73 -74 0
-73 -75 0
-74 -75 0
73 74 75 0
-76 -77 0
-76 -78 0
-77 -78 0
76 77 78 0
-79 -80 0
-79 -81 0
-80 -81 0
79 80 81 0
-82 -83 0
-82 -84 0
-83 -84 0
82 83 84 0
-85 -86 0
-85 -87 0
-86 -87 0
85 86 87 0
-88 -89 0
-88 -90 0
-89 -90 0
88 89 90 0
-91 -92 0
-91 -93 0
-92 -93 0
91 92 93 0
-94 -95 0
-94 -96 0
-95 -96 0
94 95 96 0
-97 -98 0
-97 -99 0
-98 -99 0
97 98 99 0
-100 -101 0
-100 -102 0
-101 -102 0
100 101 102 0
-103 -104 0
-103 -105 0
-104 -105 0
103 104 105 0
-106 -107 0
-106 -108 0
-107 -108 0
106 107 108 0
-109 -110 0
-109 -111 0
-110 -111 0
109 110 111 0
-112 -113 0
-112 -114 0
-113 -114 0
112 113 114 0
-115 -116 0
-115 -117 0
-116 -117 0
115 116 117 0
-118 -119 0
-118 -120 0
-119 -120 0
118 119 120 0
-121 -122 0
-121 -123 0
-122 -123 0
121 122 123 0
-124 -125 0
-124 -126 0
-125 -126 0
124 125 126 0
-127 -128 0
-127 -129 0
-128 -129 0
127 128 129 0
-130 -131 0
-130 -132 0
-131 -132 0
130 131 132 0
-133 -134 0
-133 -135 0
-134 -135 0
133 134 135 0
-136 -137 0
-136 -138 0
-137 -138 0
136 137 138 0
-139 -140 0
-139 -141 0
-140 -141 0
139 140 141 0
-142 -143 0
-142 -144 0
-143 -144 0
142 143 144 0
-145 -146 0
-145 -147 0
-146 -147 0
145 146 147 0
-148 -149 0
-148 -150 0
-149 -150 0
148 149 150 0
-151 -152 0
-151 -153 0
-152 -153 0
151 152 153 0
-154 -155 0
-154 -156 0
-155 -156 0
154 155 156 0
-157 -158 0
-157 -159 0
-158 -159 0
157 158 159 0
-160 -161 0
-160 -162 0
-161 -162 0
160 161 162 0
-163 -164 0
-163 -165 0
-164 -165 0
163 164 165 0
-166 -167 0
-166 -168 0
-167 -168 0
166 167 168 0
-169 -170 0
-169 -171 0
-170 -171 0
169 170 171 0
-172 -173 0
-172 -174 0
-173 -174 0
172 173 174 0
-175 -176 0
-175 -177 0
-176 -177 0
175 176 177 0
-178 -179 0
-178 -180 0
-179 -180 0
178 179 180 0
-181 -182 0
-181 -183 0
-182 -183 0
181 182 183 0
-184 -185 0
-184 -186 0
-185 -186 0
184 185 186 0
-187 -188 0
-187 -189 0
-188 -189 0
187 188 189 0
-190 -191 0
-190 -192 0
-191 -192 0
190 191 192 0
-193 -194 0
-193 -195 0
-194 -195 0
193 194 195 0
-196 -197 0
-196 -198 0
-197 -198 0
196 197 198 0
-199 -200 0
-199 -201 0
-200 -201 0
199 200 201 0
-202 -203 0
-202 -204 0
-203 -204 0
202 203 204 0
-205 -206 0
-205 -207 0
-206 -207 0
205 206 207 0
-208 -209 0
-208 -210 0
-209 -210 0
208 209 210 0
-211 -212 0
-211 -213 0
-212 -213 0
211 212 213 0
-214 -215 0
-214 -216 0
-215 -216 0
214 215 216 0
-217 -218 0
-217 -219 0
-218 -219 0
217 218 219 0
-220 -221 0
-220 -222 0
-221 -222 0
220 221 222 0
-223 -224 0
-223 -225 0
-224 -225 0
223 224 225 0
-226 -227 0
-226 -228 0
-227 -228 0
226 227 228 0
-229 -230 0
-229 -231 0
-230 -231 0
229 230 231 0
-232 -233 0
-232 -234 0
-233 -234 0
232 233 234 0
-235 -236 0
-235 -237 0
-236 -237 0
235 236 237 0
-238 -239 0
-238 -240 0
-239 -240 0
238 239 240 0
-241 -242 0
-241 -243 0
-242 -243 0
241 242 243 0
-244 -245 0
-244 -246 0
-245 -246 0
244 245 246 0
-247 -248 0
-247 -249 0
-248 -249 0
247 248 249 0
-250 -251 0
-250 -252 0
-251 -252 0
250 251 252 0
-253 -254 0
-253 -255 0
-254 -255 0
253 254 255 0
-256 -257 0
-256 -258 0
-257 -258 0
256 257 258 0
-259 -260 0
-259 -261 0
-260 -261 0
259 260 261 0
-262 -263 0
-262 -264 0
-263 -264 0
262 263 264 0
-265 -266 0
-265 -267 0
-266 -267 0
265 266 267 0
-268 -269 0
-268 -270 0
-269 -270 0
268 269 270 0
-271 -272 0
-271 -273 0
-272 -273 0
271 272 273 0
-274 -275 0
-274 -276 0
-275 -276 0
274 275 276 0
-277 -278 0
-277 -279 0
-278 -279 0
277 278 279 0
-280 -281 0
-280 -282 0
-281 -282 0
280 281 282 0
-283 -284 0
-283 -285 0
-284 -285 0
283 284 285 0
-286 -287 0
-286 -288 0
-287 -288 0
286 287 288 0
-289 -290 0
-289 -291 0
-290 -291 0
289 290 291 0
-292 -293 0
-292 -294 0
-293 -294 0
292 293 294 0
-295 -296 0
-295 -297 0
-296 -297 0
295 296 297 0
-298 -299 0
-298 -300 0
-299 -300 0
298 299 300 0
-301 -302 0
-301 -303 0
-302 -303 0
301 302 303 0
-304 -305 0
-304 -306 0
-305 -306 0
304 305 306 0
-307 -308 0
-307 -309 0
-308 -309 0
307 308 309 0
-310 -311 0
-310 -312 0
-311 -312 0
310 311 312 0
-313 -314 0
-313 -315 0
-314 -315 0
313 314 315 0
-316 -317 0
-316 -318 0
-317 -318 0
316 317 318 0
-319 -320 0
-319 -321 0
-320 -321 0
319 320 321 0
-322 -323 0
-322 -324 0
-323 -324 0
322 323 324 0
-325 -326 0
-325 -327 0
-326 -327 0
325 326 327 0
-328 -329 0
-328 -330 0
-329 -330 0
328 329 330 0
-331 -332 0
-331 -333 0
-332 -333 0
331 332 333 0
-334 -335 0
-334 -336 0
-335 -336 0
334 335 336 0
-337 -338 0
-337 -339 0
-338 -339 0
337 338 339 0
-340 -341 0
-340 -342 0
-341 -342 0
340 341 342 0
-343 -344 0
-343 -345 0
-344 -345 0
343 344 345 0
-346 -347 0
-346 -348 0
-347 -348 0
346 347 348 0
-349 -350 0
-349 -351 0
-350 -351 0
349 350 351 0
-352 -353 0
-352 -354 0
-353 -354 0
352 353 354 0
-355 -356 0
-355 -357 0
-356 -357 0
355 356 357 0
-358 -359 0
-358 -360 0
-359 -360 0
358 359 360 0
-361 -362 0
-361 -363 0
-362 -363 0
361 362 363 0
-364 -365 0
-364 -366 0
-365 -366 0
364 365 366 0
-367 -368 0
-367 -369 0
-368 -369 0
367 368 369 0
-370 -371 0
-370 -372 0
-371 -372 0
370 371 372 0
-373 -374 0
-373 -375 0
-374 -375 0
373 374 375 0
-376 -377 0
-376 -378 0
-377 -378 0
376 377 378 0
-379 -380 0
-379 -381 0
-380 -381 0
379 380 381 0
-382 -383 0
-382 -384 0
-383 -384 0
382 383 384 0
-385 -386 0
-385 -387 0
-386 -387 0
385 386 387 0
-388 -389 0
-388 -390 0
-389 -390 0
388 389 390 0
-391 -392 0
-391 -393 0
-392 -393 0
391 392 393 0
-394 -395 0
-394 -396 0
-395 -396 0
394 395 396 0
-397 -398 0
-397 -399 0
-398 -399 0
397 398 399 0
-400 -401 0
-400 -402 0
-401 -402 0
400 401 402 0
-403 -404 0
-403 -405 0
-404 -405 0
403 404 405 0
-406 -407 0
-406 -408 0
-407 -408 0
406 407 408 0
-409 -410 0
-409 -411 0
-410 -411 0
409 410 411 0
-412 -413 0
-412 -414 0
-413 -414 0
412 413 414 0
-415 -416 0
-415 -417 0
-416 -417 0
415 416 417 0
-418 -419 0
-418 -420 0
-419 -420 0
418 419 420 0
-421 -422 0
-421 -423 0
-422 -423 0
421 422 423 0
-424 -425 0
-424 -426 0
-425 -426 0
424 425 426 0
-427 -428 0
-427 -429 0
-428 -429 0
427 428 429 0
-430 -431 0
-430 -432 0
-431 -432 0
430 431 432 0
-433 -434 0
-433 -435 0
-434 -435 0
433 434 435 0
-436 -437 0
-436 -438 0
-437 -438 0
436 437 438 0
-439 -440 0
-439 -441 0
-440 -441 0
439 440 441 0
-442 -443 0
-442 -444 0
-443 -444 0
442 443 444 0
-445 -446 0
-445 -447 0
-446 -447 0
445 446 447 0
-448 -449 0
-448 -450 0
-449 -450 0
448 449 450 0
-451 -452 0
-451 -453 0
-452 -453 0
451 452 453 0
-454 -455 0
-454 -456 0
-455 -456 0
454 455 456 0
-457 -458 0
-457 -459 0
-458 -459 0
457 458 459 0
-460 -461 0
-460 -462 0
-461 -462 0
460 461 462 0
-463 -464 0
-463 -465 0
-464 -465 0
463 464 465 0
-466 -467 0
-466 -468 0
-467 -468 0
466 467 468 0
-469 -470 0
-469 -471 0
-470 -471 0
469 470 471 0
-472 -473 0
-472 -474 0
-473 -474 0
472 473 474 0
-475 -476 0
-475 -477 0
-476 -477 0
475 476 477 0
-478 -479 0
-478 -480 0
-479 -480 0
478 479 480 0
-481 -482 0
-481 -483 0
-482 -483 0
481 482 483 0
-484 -485 0
-484 -486 0
-485 -486 0
484 485 486 0
-487 -488 0
-487 -489 0
-488 -489 0
487 488 489 0
-490 -491 0
-490 -492 0
-491 -492 0
490 491 492 0
-493 -494 0
-493 -495 0
-494 -495 0
493 494 495 0
-496 -497 0
-496 -498 0
-497 -498 0
496 497 498 0
-499 -500 0
-499 -501 0
-500 -501 0
499 500 501 0
-502 -503 0
-502 -504 0
-503 -504 0
502 503 504 0
-505 -506 0
-505 -507 0
-506 -507 0
505 506 507 0
-508 -509 0
-508 -510 0
-509 -510 0
508 509 510 0
-511 -512 0
-511 -513 0
-512 -513 0
511 512 513 0
-514 -515 0
-514 -516 0
-515 -516 0
514 515 516 0
-517 -518 0
-517 -519 0
-518 -519 0
517 518 519 0
-520 -521 0
-520 -522 0
-521 -522 0
520 521 522 0
-523 -524 0
-523 -525 0
-524 -525 0
523 524 525 0
-526 -527 0
-526 -528 0
-527 -528 0
526 527 528 0
-529 -530 0
-529 -531 0
-530 -531 0
529 530 531 0
-532 -533 0
-532 -534 0
-533 -534 0
532 533 534 0
-535 -536 0
-535 -537 0
-536 -537 0
535 536 537 0
-538 -539 0
-538 -540 0
-539 -540 0
538 539 540 0
-541 -542 0
-541 -543 0
-542 -543 0
541 542 543 0
-544 -545 0
-544 -546 0
-545 -546 0
544 545 546 0
-547 -548 0
-547 -549 0
-548 -549 0
547 548 549 0
-550 -551 0
-550 -552 0
-551 -552 0
550 551 552 0
-553 -554 0
-553 -555 0
-554 -555 0
553 554 555 0
-556 -557 0
-556 -558 0
-557 -558 0
556 557 558 0
-559 -560 0
-559 -561 0
-560 -561 0
559 560 561 0
-562 -563 0
-562 -564 0
-563 -564 0
562 563 564 0
-565 -566 0
-565 -567 0
-566 -567 0
565 566 567 0
-568 -569 0
-568 -570 0
-569 -570 0
568 569 570 0
-571 -572 0
-571 -573 0
-572 -573 0
571 572 573 0
-574 -575 0
-574 -576 0
-575 -576 0
574 575 576 0
-577 -578 0
-577 -579 0
-578 -579 0
577 578 579 0
-580 -581 0
-580 -582 0
-581 -582 0
580 581 582 0
-583 -584 0
-583 -585 0
-584 -585 0
583 584 585 0
-586 -587 0
-586 -588 0
-587 -588 0
586 587 588 0
-589 -590 0
-589 -591 0
-590 -591 0
589 590 591 0
-592 -593 0
-592 -594 0
-593 -594 0
592 593 594 0
-595 -596 0
-595 -597 0
-596 -597 0
595 596 597 0
-598 -599 0
-598 -600 0
-599 -600 0
598 599 600 0
-43 -1 0
-44 -2 0
-45 -3 0
-172 -1 0
-173 -2 0
-174 -3 0
-409 -1 0
-410 -2 0
-411 -3 0
-427 -1 0
-428 -2 0
-429 -3 0
-529 -1 0
-530 -2 0
-531 -3 0
-532 -1 0
-533 -2 0
-534 -3 0
-364 -4 0
-365 -5 0
-366 -6 0
-103 -7 0
-104 -8 0
-105 -9 0
-370 -7 0
-371 -8 0
-372 -9 0
-454 -7 0
-455 -8 0
-456 -9 0
-565 -7 0
-566 -8 0
-567 -9 0
-598 -7 0
-599 -8 0
-600 -9 0
-64 -10 0
-65 -11 0
-66 -12 0
-193 -10 0
-194 -11 0
-195 -12 0
-250 -10 0
-251 -11 0
-252 -12 0
-274 -10 0
-275 -11 0
-276 -12 0
-511 -10 0
-512 -11 0
-513 -12 0
-373 -13 0
-374 -14 0
-375 -15 0
-514 -13 0
-515 -14 0
-516 -15 0
-259 -16 0
-260 -17 0
-261 -18 0
-268 -16 0
-269 -17 0
-270 -18 0
-481 -16 0
-482 -17 0
-483 -18 0
-508 -16 0
-509 -17 0
-510 -18 0
-64 -19 0
-65 -20 0
-66 -21 0
-250 -19 0
-251 -20 0
-252 -21 0
-253 -19 0
-254 -20 0
-255 -21 0
-388 -19 0
-389 -20 0
-390 -21 0
-391 -19 0
-392 -20 0
-393 -21 0
-475 -19 0
-476 -20 0
-477 -21 0
-481 -19 0
-482 -20 0
-483 -21 0
-43 -22 0
-44 -23 0
-45 -24 0
-76 -22 0
-77 -23 0
-78 -24 0
-283 -22 0
-284 -23 0
-285 -24 0
-394 -22 0
-395 -23 0
-396 -24 0
-115 -25 0
-116 -26 0
-117 -27 0
-226 -25 0
-227 -26 0
-228 -27 0
-403 -25 0
-404 -26 0
-405 -27 0
-487 -25 0
-488 -26 0
-489 -27 0
-499 -25 0
-500 -26 0
-501 -27 0
-241 -28 0
-242 -29 0
-243 -30 0
-445 -28 0
-446 -29 0
-447 -30 0
-532 -28 0
-533 -29 0
-534 -30 0
-100 -31 0
-101 -32 0
-102 -33 0
-118 -31 0
-119 -32 0
-120 -33 0
-163 -31 0
-164 -32 0
-165 -33 0
-340 -31 0
-341 -32 0
-342 -33 0
-508 -31 0
-509 -32 0
-510 -33 0
-163 -34 0
-164 -35 0
-165 -36 0
-463 -34 0
-464 -35 0
-465 -36 0
-586 -34 0
-587 -35 0
-588 -36 0
-79 -37 0
-80 -38 0
-81 -39 0
-253 -37 0
-254 -38 0
-255 -39 0
-358 -37 0
-359 -38 0
-360 -39 0
-526 -37 0
-527 -38 0
-528 -39 0
-91 -40 0
-92 -41 0
-93 -42 0
-166 -40 0
-167 -41 0
-168 -42 0
-223 -40 0
-224 -41 0
-225 -42 0
-262 -40 0
-263 -41 0
-264 -42 0
-208 -43 0
-209 -44 0
-210 -45 0
-265 -43 0
-266 -44 0
-267 -45 0
-271 -43 0
-272 -44 0
-273 -45 0
-385 -43 0
-386 -44 0
-387 -45 0
-442 -43 0
-443 -44 0
-444 -45 0
-91 -46 0
-92 -47 0
-93 -48 0
-352 -46 0
-353 -47 0
-354 -48 0
-511 -46 0
-512 -47 0
-513 -48 0
-541 -46 0
-542 -47 0
-543 -48 0
-115 -49 0
-116 -50 0
-117 -51 0
-475 -49 0
-476 -50 0
-477 -51 0
-589 -49 0
-590 -50 0
-591 -51 0
-154 -52 0
-155 -53 0
-156 -54 0
-202 -52 0
-203 -53 0
-204 -54 0
-442 -52 0
-443 -53 0
-444 -54 0
-493 -52 0
-494 -53 0
-495 -54 0
-496 -52 0
-497 -53 0
-498 -54 0
-511 -55 0
-512 -56 0
-513 -57 0
-514 -55 0
-515 -56 0
-516 -57 0
-124 -58 0
-125 -59 0
-126 -60 0
-136 -58 0
-137 -59 0
-138 -60 0
-178 -58 0
-179 -59 0
-180 -60 0
-448 -58 0
-449 -59 0
-450 -60 0
-499 -58 0
-500 -59 0
-501 -60 0
-118 -61 0
-119 -62 0
-120 -63 0
-244 -61 0
-245 -62 0
-246 -63 0
-289 -61 0
-290 -62 0
-291 -63 0
-451 -61 0
-452 -62 0
-453 -63 0
-550 -61 0
-551 -62 0
-552 -63 0
-568 -61 0
-569 -62 0
-570 -63 0
-139 -64 0
-140 -65 0
-141 -66 0
-241 -64 0
-242 -65 0
-243 -66 0
-244 -64 0
-245 -65 0
-246 -66 0
-400 -64 0
-401 -65 0
-402 -66 0
-415 -64 0
-416 -65 0
-417 -66 0
-166 -67 0
-167 -68 0
-168 -69 0
-205 -67 0
-206 -68 0
-207 -69 0
-262 -67 0
-263 -68 0
-264 -69 0
-319 -67 0
-320 -68 0
-321 -69 0
-391 -67 0
-392 -68 0
-393 -69 0
-406 -67 0
-407 -68 0
-408 -69 0
-178 -70 0
-179 -71 0
-180 -72 0
-187 -70 0
-188 -71 0
-189 -72 0
-565 -70 0
-566 -71 0
-567 -72 0
-91 -73 0
-92 -74 0
-93 -75 0
-394 -73 0
-395 -74 0
-396 -75 0
-94 -76 0
-95 -77 0
-96 -78 0
-106 -76 0
-107 -77 0
-108 -78 0
-136 -76 0
-137 -77 0
-138 -78 0
-517 -76 0
-518 -77 0
-519 -78 0
-262 -79 0
-263 -80 0
-264 -81 0
-310 -79 0
-311 -80 0
-312 -81 0
-313 -79 0
-314 -80 0
-315 -81 0
-505 -79 0
-506 -80 0
-507 -81 0
-595 -79 0
-596 -80 0
-597 -81 0
-106 -82 0
-107 -83 0
-108 -84 0
-124 -82 0
-125 -83 0
-126 -84 0
-250 -82 0
-251 -83 0
-252 -84 0
-415 -82 0
-416 -83 0
-417 -84 0
-430 -82 0
-431 -83 0
-432 -84 0
-505 -82 0
-506 -83 0
-507 -84 0
-544 -82 0
-545 -83 0
-546 -84 0
-190 -85 0
-191 -86 0
-192 -87 0
-229 -85 0
-230 -86 0
-231 -87 0
-259 -85 0
-260 -86 0
-261 -87 0
-319 -85 0
-320 -86 0
-321 -87 0
-364 -85 0
-365 -86 0
-366 -87 0
-409 -85 0
-410 -86 0
-411 -87 0
-583 -85 0
-584 -86 0
-585 -87 0
-151 -88 0
-152 -89 0
-153 -90 0
-175 -88 0
-176 -89 0
-177 -90 0
-214 -88 0
-215 -89 0
-216 -90 0
-151 -91 0
-152 -92 0
-153 -93 0
-220 -91 0
-221 -92 0
-222 -93 0
-295 -91 0
-296 -92 0
-297 -93 0
-457 -91 0
-458 -92 0
-459 -93 0
-589 -91 0
-590 -92 0
-591 -93 0
-109 -94 0
-110 -95 0
-111 -96 0
-355 -94 0
-356 -95 0
-357 -96 0
-508 -94 0
-509 -95 0
-510 -96 0
-553 -94 0
-554 -95 0
-555 -96 0
-574 -94 0
-575 -95 0
-576 -96 0
-106 -97 0
-107 -98 0
-108 -99 0
-190 -97 0
-191 -98 0
-192 -99 0
-598 -97 0
-599 -98 0
-600 -99 0
-202 -100 0
-203 -101 0
-204 -102 0
-283 -100 0
-284 -101 0
-285 -102 0
-349 -100 0
-350 -101 0
-351 -102 0
-193 -103 0
-194 -104 0
-195 -105 0
-205 -103 0
-206 -104 0
-207 -105 0
-253 -103 0
-254 -104 0
-255 -105 0
-277 -103 0
-278 -104 0
-279 -105 0
-175 -106 0
-176 -107 0
-177 -108 0
-313 -106 0
-314 -107 0
-315 -108 0
-415 -106 0
-416 -107 0
-417 -108 0
-520 -106 0
-521 -107 0
-522 -108 0
-118 -109 0
-119 -110 0
-120 -111 0
-214 -109 0
-215 -110 0
-216 -111 0
-220 -109 0
-221 -110 0
-222 -111 0
-235 -109 0
-236 -110 0
-237 -111 0
-268 -109 0
-269 -110 0
-270 -111 0
-430 -109 0
-431 -110 0
-432 -111 0
-121 -112 0
-122 -113 0
-123 -114 0
-154 -112 0
-155 -113 0
-156 -114 0
-193 -112 0
-194 -113 0
-195 -114 0
-223 -112 0
-224 -113 0
-225 -114 0
-376 -112 0
-377 -113 0
-378 -114 0
-394 -112 0
-395 -113 0
-396 -114 0
-403 -112 0
-404 -113 0
-405 -114 0
-220 -115 0
-221 -116 0
-222 -117 0
-274 -115 0
-275 -116 0
-276 -117 0
-280 -115 0
-281 -116 0
-282 -117 0
-208 -118 0
-209 -119 0
-210 -120 0
-289 -118 0
-290 -119 0
-291 -120 0
-328 -118 0
-329 -119 0
-330 -120 0
-412 -118 0
-413 -119 0
-414 -120 0
-577 -118 0
-578 -119 0
-579 -120 0
-145 -121 0
-146 -122 0
-147 -123 0
-277 -121 0
-278 -122 0
-279 -123 0
-280 -121 0
-281 -122 0
-282 -123 0
-403 -121 0
-404 -122 0
-405 -123 0
-508 -121 0
-509 -122 0
-510 -123 0
-145 -124 0
-146 -125 0
-147 -126 0
-511 -124 0
-512 -125 0
-513 -126 0
-571 -124 0
-572 -125 0
-573 -126 0
-214 -127 0
-215 -128 0
-216 -129 0
-364 -127 0
-365 -128 0
-366 -129 0
-439 -127 0
-440 -128 0
-441 -129 0
-580 -127 0
-581 -128 0
-582 -129 0
-142 -130 0
-143 -131 0
-144 -132 0
-592 -130 0
-593 -131 0
-594 -132 0
-286 -133 0
-287 -134 0
-288 -135 0
-295 -133 0
-296 -134 0
-297 -135 0
-424 -133 0
-425 -134 0
-426 -135 0
-430 -133 0
-431 -134 0
-432 -135 0
-433 -133 0
-434 -134 0
-435 -135 0
-235 -136 0
-236 -137 0
-237 -138 0
-301 -136 0
-302 -137 0
-303 -138 0
-316 -136 0
-317 -137 0
-318 -138 0
-154 -139 0
-155 -140 0
-156 -141 0
-217 -139 0
-218 -140 0
-219 -141 0
-286 -139 0
-287 -140 0
-288 -141 0
-334 -139 0
-335 -140 0
-336 -141 0
-178 -142 0
-179 -143 0
-180 -144 0
-208 -142 0
-209 -143 0
-210 -144 0
-376 -142 0
-377 -143 0
-378 -144 0
-217 -145 0
-218 -146 0
-219 -147 0
-277 -145 0
-278 -146 0
-279 -147 0
-550 -145 0
-551 -146 0
-552 -147 0
-175 -148 0
-176 -149 0
-177 -150 0
-289 -148 0
-290 -149 0
-291 -150 0
-172 -151 0
-173 -152 0
-174 -153 0
-409 -151 0
-410 -152 0
-411 -153 0
-442 -151 0
-443 -152 0
-444 -153 0
-181 -154 0
-182 -155 0
-183 -156 0
-256 -154 0
-257 -155 0
-258 -156 0
-277 -154 0
-278 -155 0
-279 -156 0
-361 -154 0
-362 -155 0
-363 -156 0
-502 -154 0
-503 -155 0
-504 -156 0
-238 -157 0
-239 -158 0
-240 -159 0
-277 -163 0
-278 -164 0
-279 -165 0
-361 -163 0
-362 -164 0
-363 -165 0
-217 -166 0
-218 -167 0
-219 -168 0
-232 -166 0
-233 -167 0
-234 -168 0
-286 -166 0
-287 -167 0
-288 -168 0
-262 -169 0
-263 -170 0
-264 -171 0
-460 -169 0
-461 -170 0
-462 -171 0
-493 -169 0
-494 -170 0
-495 -171 0
-499 -169 0
-500 -170 0
-501 -171 0
-514 -169 0
-515 -170 0
-516 -171 0
-292 -172 0
-293 -173 0
-294 -174 0
-385 -172 0
-386 -173 0
-387 -174 0
-400 -172 0
-401 -173 0
-402 -174 0
-580 -172 0
-581 -173 0
-582 -174 0
-268 -175 0
-269 -176 0
-270 -177 0
-352 -175 0
-353 -176 0
-354 -177 0
-556 -175 0
-557 -176 0
-558 -177 0
-568 -175 0
-569 -176 0
-570 -177 0
-583 -175 0
-584 -176 0
-585 -177 0
-292 -178 0
-293 -179 0
-294 -180 0
-586 -178 0
-587 -179 0
-588 -180 0
-184 -181 0
-185 -182 0
-186 -183 0
-199 -181 0
-200 -182 0
-201 -183 0
-244 -181 0
-245 -182 0
-246 -183 0
-271 -181 0
-272 -182 0
-273 -183 0
-424 -181 0
-425 -182 0
-426 -183 0
-220 -184 0
-221 -185 0
-222 -186 0
-250 -184 0
-251 -185 0
-252 -186 0
-478 -184 0
-479 -185 0
-480 -186 0
-298 -187 0
-299 -188 0
-300 -189 0
-391 -187 0
-392 -188 0
-393 -189 0
-412 -187 0
-413 -188 0
-414 -189 0
-280 -190 0
-281 -191 0
-282 -192 0
-307 -190 0
-308 -191 0
-309 -192 0
-370 -190 0
-371 -191 0
-372 -192 0
-505 -190 0
-506 -191 0
-507 -192 0
-595 -190 0
-596 -191 0
-597 -192 0
-382 -193 0
-383 -194 0
-384 -195 0
-508 -193 0
-509 -194 0
-510 -195 0
-523 -193 0
-524 -194 0
-525 -195 0
-583 -193 0
-584 -194 0
-585 -195 0
-265 -196 0
-266 -197 0
-267 -198 0
-340 -196 0
-341 -197 0
-342 -198 0
-544 -196 0
-545 -197 0
-546 -198 0
-547 -196 0
-548 -197 0
-549 -198 0
-235 -199 0
-236 -200 0
-237 -201 0
-313 -199 0
-314 -200 0
-315 -201 0
-328 -199 0
-329 -200 0
-330 -201 0
-370 -199 0
-371 -200 0
-372 -201 0
-394 -199 0
-395 -200 0
-396 -201 0
-316 -202 0
-317 -203 0
-318 -204 0
-388 -202 0
-389 -203 0
-390 -204 0
-547 -202 0
-548 -203 0
-549 -204 0
-526 -205 0
-527 -206 0
-528 -207 0
-310 -208 0
-311 -209 0
-312 -210 0
-352 -211 0
-353 -212 0
-354 -213 0
-436 -211 0
-437 -212 0
-438 -213 0
-475 -211 0
-476 -212 0
-477 -213 0
-373 -214 0
-374 -215 0
-375 -216 0
-433 -214 0
-434 -215 0
-435 -216 0
-376 -217 0
-377 -218 0
-378 -219 0
-442 -217 0
-443 -218 0
-444 -219 0
-448 -217 0
-449 -218 0
-450 -219 0
-487 -217 0
-488 -218 0
-489 -219 0
-229 -220 0
-230 -221 0
-231 -222 0
-391 -220 0
-392 -221 0
-393 -222 0
-532 -220 0
-533 -221 0
-534 -222 0
-256 -223 0
-257 -224 0
-258 -225 0
-583 -223 0
-584 -224 0
-585 -225 0
-232 -226 0
-233 -227 0
-234 -228 0
-289 -226 0
-290 -227 0
-291 -228 0
-292 -226 0
-293 -227 0
-294 -228 0
-334 -229 0
-335 -230 0
-336 -231 0
-418 -229 0
-419 -230 0
-420 -231 0
-514 -229 0
-515 -230 0
-516 -231 0
-598 -229 0
-599 -230 0
-600 -231 0
-241 -232 0
-242 -233 0
-243 -234 0
-358 -232 0
-359 -233 0
-360 -234 0
-421 -232 0
-422 -233 0
-423 -234 0
-418 -235 0
-419 -236 0
-420 -237 0
-469 -235 0
-470 -236 0
-471 -237 0
-325 -238 0
-326 -239 0
-327 -240 0
-337 -238 0
-338 -239 0
-339 -240 0
-394 -238 0
-395 -239 0
-396 -240 0
-352 -241 0
-353 -242 0
-354 -243 0
-568 -241 0
-569 -242 0
-570 -243 0
-253 -244 0
-254 -245 0
-255 -246 0
-316 -244 0
-317 -245 0
-318 -246 0
-337 -244 0
-338 -245 0
-339 -246 0
-523 -244 0
-524 -245 0
-525 -246 0
-292 -247 0
-293 -248 0
-294 -249 0
-325 -247 0
-326 -248 0
-327 -249 0
-457 -247 0
-458 -248 0
-459 -249 0
-535 -247 0
-536 -248 0
-537 -249 0
-385 -250 0
-386 -251 0
-387 -252 0
-400 -250 0
-401 -251 0
-402 -252 0
-547 -250 0
-548 -251 0
-549 -252 0
-589 -250 0
-590 -251 0
-591 -252 0
-454 -253 0
-455 -254 0
-456 -255 0
-499 -253 0
-500 -254 0
-501 -255 0
-574 -253 0
-575 -254 0
-576 -255 0
-547 -256 0
-548 -257 0
-549 -258 0
-580 -256 0
-581 -257 0
-582 -258 0
-583 -256 0
-584 -257 0
-585 -258 0
-292 -259 0
-293 -260 0
-294 -261 0
-313 -259 0
-314 -260 0
-315 -261 0
-352 -259 0
-353 -260 0
-354 -261 0
-565 -259 0
-566 -260 0
-567 -261 0
-265 -262 0
-266 -263 0
-267 -264 0
-292 -262 0
-293 -263 0
-294 -264 0
-562 -262 0
-563 -263 0
-564 -264 0
-274 -265 0
-275 -266 0
-276 -267 0
-283 -265 0
-284 -266 0
-285 -267 0
-355 -265 0
-356 -266 0
-357 -267 0
-334 -268 0
-335 -269 0
-336 -270 0
-319 -271 0
-320 -272 0
-321 -273 0
-322 -271 0
-323 -272 0
-324 -273 0
-400 -271 0
-401 -272 0
-402 -273 0
-499 -271 0
-500 -272 0
-501 -273 0
-568 -271 0
-569 -272 0
-570 -273 0
-487 -274 0
-488 -275 0
-489 -276 0
-490 -274 0
-491 -275 0
-492 -276 0
-511 -274 0
-512 -275 0
-513 -276 0
-520 -274 0
-521 -275 0
-522 -276 0
-328 -277 0
-329 -278 0
-330 -279 0
-385 -277 0
-386 -278 0
-387 -279 0
-367 -280 0
-368 -281 0
-369 -282 0
-565 -280 0
-566 -281 0
-567 -282 0
-517 -283 0
-518 -284 0
-519 -285 0
-577 -283 0
-578 -284 0
-579 -285 0
-334 -286 0
-335 -287 0
-336 -288 0
-397 -286 0
-398 -287 0
-399 -288 0
-502 -286 0
-503 -287 0
-504 -288 0
-343 -289 0
-344 -290 0
-345 -291 0
-457 -289 0
-458 -290 0
-459 -291 0
-502 -289 0
-503 -290 0
-504 -291 0
-568 -289 0
-569 -290 0
-570 -291 0
-394 -295 0
-395 -296 0
-396 -297 0
-517 -295 0
-518 -296 0
-519 -297 0
-523 -295 0
-524 -296 0
-525 -297 0
-439 -298 0
-440 -299 0
-441 -300 0
-472 -298 0
-473 -299 0
-474 -300 0
-382 -301 0
-383 -302 0
-384 -303 0
-451 -301 0
-452 -302 0
-453 -303 0
-478 -301 0
-479 -302 0
-480 -303 0
-517 -301 0
-518 -302 0
-519 -303 0
-544 -301 0
-545 -302 0
-546 -303 0
-559 -301 0
-560 -302 0
-561 -303 0
-349 -304 0
-350 -305 0
-351 -306 0
-397 -304 0
-398 -305 0
-399 -306 0
-445 -304 0
-446 -305 0
-447 -306 0
-370 -307 0
-371 -308 0
-372 -309 0
-502 -307 0
-503 -308 0
-504 -309 0
-550 -307 0
-551 -308 0
-552 -309 0
-391 -310 0
-392 -311 0
-393 -312 0
-535 -310 0
-536 -311 0
-537 -312 0
-547 -310 0
-548 -311 0
-549 -312 0
-346 -313 0
-347 -314 0
-348 -315 0
-427 -313 0
-428 -314 0
-429 -315 0
-490 -313 0
-491 -314 0
-492 -315 0
-547 -313 0
-548 -314 0
-549 -315 0
-328 -316 0
-329 -317 0
-330 -318 0
-343 -316 0
-344 -317 0
-345 -318 0
-448 -316 0
-449 -317 0
-450 -318 0
-463 -319 0
-464 -320 0
-465 -321 0
-394 -322 0
-395 -323 0
-396 -324 0
-361 -325 0
-362 -326 0
-363 -327 0
-508 -325 0
-509 -326 0
-510 -327 0
-571 -325 0
-572 -326 0
-573 -327 0
-541 -328 0
-542 -329 0
-543 -330 0
-550 -328 0
-551 -329 0
-552 -330 0
-364 -334 0
-365 -335 0
-366 -336 0
-460 -334 0
-461 -335 0
-462 -336 0
-466 -334 0
-467 -335 0
-468 -336 0
-568 -334 0
-569 -335 0
-570 -336 0
-355 -337 0
-356 -338 0
-357 -339 0
-379 -340 0
-380 -341 0
-381 -342 0
-418 -343 0
-419 -344 0
-420 -345 0
-460 -343 0
-461 -344 0
-462 -345 0
-532 -343 0
-533 -344 0
-534 -345 0
-571 -343 0
-572 -344 0
-573 -345 0
-379 -352 0
-380 -353 0
-381 -354 0
-472 -352 0
-473 -353 0
-474 -354 0
-385 -355 0
-386 -356 0
-387 -357 0
-403 -355 0
-404 -356 0
-405 -357 0
-505 -355 0
-506 -356 0
-507 -357 0
-379 -358 0
-380 -359 0
-381 -360 0
-490 -358 0
-491 -359 0
-492 -360 0
-574 -358 0
-575 -359 0
-576 -360 0
-373 -361 0
-374 -362 0
-375 -363 0
-439 -361 0
-440 -362 0
-441 -363 0
-451 -361 0
-452 -362 0
-453 -363 0
-370 -367 0
-371 -368 0
-372 -369 0
-400 -370 0
-401 -371 0
-402 -372 0
-445 -373 0
-446 -374 0
-447 -375 0
-568 -373 0
-569 -374 0
-570 -375 0
-409 -376 0
-410 -377 0
-411 -378 0
-442 -376 0
-443 -377 0
-444 -378 0
-490 -376 0
-491 -377 0
-492 -378 0
-406 -379 0
-407 -380 0
-408 -381 0
-448 -379 0
-449 -380 0
-450 -381 0
-544 -379 0
-545 -380 0
-546 -381 0
-415 -382 0
-416 -383 0
-417 -384 0
-430 -382 0
-431 -383 0
-432 -384 0
-475 -382 0
-476 -383 0
-477 -384 0
-562 -382 0
-563 -383 0
-564 -384 0
-469 -385 0
-470 -386 0
-471 -387 0
-556 -385 0
-557 -386 0
-558 -387 0
-577 -385 0
-578 -386 0
-579 -387 0
-406 -388 0
-407 -389 0
-408 -390 0
-421 -388 0
-422 -389 0
-423 -390 0
-517 -388 0
-518 -389 0
-519 -390 0
-427 -391 0
-428 -392 0
-429 -393 0
-451 -391 0
-452 -392 0
-453 -393 0
-598 -391 0
-599 -392 0
-600 -393 0
-412 -394 0
-413 -395 0
-414 -396 0
-490 -397 0
-491 -398 0
-492 -399 0
-511 -400 0
-512 -401 0
-513 -402 0
-433 -406 0
-434 -407 0
-435 -408 0
-454 -406 0
-455 -407 0
-456 -408 0
-505 -406 0
-506 -407 0
-507 -408 0
-517 -406 0
-518 -407 0
-519 -408 0
-421 -409 0
-422 -410 0
-423 -411 0
-472 -418 0
-473 -419 0
-474 -420 0
-520 -421 0
-521 -422 0
-522 -423 0
-592 -421 0
-593 -422 0
-594 -423 0
-550 -424 0
-551 -425 0
-552 -426 0
-457 -427 0
-458 -428 0
-459 -429 0
-583 -427 0
-584 -428 0
-585 -429 0
-451 -430 0
-452 -431 0
-453 -432 0
-463 -433 0
-464 -434 0
-465 -435 0
-484 -433 0
-485 -434 0
-486 -435 0
-580 -433 0
-581 -434 0
-582 -435 0
-496 -436 0
-497 -437 0
-498 -438 0
-499 -436 0
-500 -437 0
-501 -438 0
-574 -436 0
-575 -437 0
-576 -438 0
-577 -439 0
-578 -440 0
-579 -441 0
-481 -442 0
-482 -443 0
-483 -444 0
-469 -445 0
-470 -446 0
-471 -447 0
-514 -445 0
-515 -446 0
-516 -447 0
-550 -445 0
-551 -446 0
-552 -447 0
-568 -445 0
-569 -446 0
-570 -447 0
-598 -454 0
-599 -455 0
-600 -456 0
-559 -460 0
-560 -461 0
-561 -462 0
-502 -463 0
-503 -464 0
-504 -465 0
-598 -463 0
-599 -464 0
-600 -465 0
-580 -466 0
-581 -467 0
-582 -468 0
-490 -469 0
-491 -470 0
-492 -471 0
-523 -469 0
-524 -470 0
-525 -471 0
-586 -469 0
-587 -470 0
-588 -471 0
-580 -481 0
-581 -482 0
-582 -483 0
-550 -484 0
-551 -485 0
-552 -486 0
-589 -487 0
-590 -488 0
-591 -489 0
-535 -511 0
-536 -512 0
-537 -513 0
-544 -523 0
-545 -524 0
-546 -525 0
-586 -529 0
-587 -530 0
-588 -531 0
-538 -532 0
-539 -533 0
-540 -534 0
-562 -532 0
-563 -533 0
-564 -534 0
-556 -535 0
-557 -536 0
-558 -537 0
-553 -538 0
-554 -539 0
-555 -540 0
-589 -559 0
-590 -560 0
-591 -561 0
